# Objective value = 7
C 7
x(1,i,0,3,0) 1
x(2,i,0,2,0) 1
x(3,i,0,3,0) 1
x(1,2,3,f,5) 0
x(1,2,4,f,6) 0
x(1,2,5,f,7) 1
x(1,2,6,f,8) 0
x(1,2,7,f,9) 0
x(1,2,8,f,10) 0
x(1,2,9,f,11) 0
x(1,2,10,f,12) 0
x(1,2,11,f,13) 0
x(1,2,12,f,14) 0
x(2,1,3,f,5) 0
x(2,1,4,f,6) 0
x(2,1,5,f,7) 1
x(2,1,6,f,8) 0
x(2,1,7,f,9) 0
x(2,1,8,f,10) 0
x(2,1,9,f,11) 0
x(2,1,10,f,12) 0
x(2,1,11,f,13) 0
x(2,1,12,f,14) 0
x(3,1,3,f,4) 1
x(3,1,4,f,5) 0
x(3,1,5,f,6) 0
x(3,1,6,f,7) 0
x(3,1,7,f,8) 0
x(3,1,8,f,9) 0
x(3,1,9,f,10) 0
x(3,1,10,f,11) 0
x(3,1,11,f,12) 0
x(3,1,12,f,13) 0
x(3,1,13,f,14) 0
x(1,3,0,1,2) 0
x(1,3,0,3,1) 1
x(1,3,1,1,3) 1
x(1,3,1,3,2) 0
x(1,1,2,2,3) 0
x(1,1,2,1,3) 0
x(1,3,2,1,4) 0
x(1,3,2,3,3) 0
x(1,1,3,2,4) 0
x(1,1,3,1,4) 1
x(1,2,3,2,4) 0
x(1,3,3,1,5) 0
x(1,3,3,3,4) 0
x(1,1,4,2,5) 1
x(1,1,4,1,5) 0
x(1,2,4,2,5) 0
x(1,3,4,1,6) 0
x(1,3,4,3,5) 0
x(1,1,5,2,6) 0
x(1,1,5,1,6) 0
x(1,2,5,2,6) 0
x(1,3,5,1,7) 0
x(1,3,5,3,6) 0
x(1,1,6,2,7) 0
x(1,1,6,1,7) 0
x(1,2,6,2,7) 0
x(1,3,6,1,8) 0
x(1,3,6,3,7) 0
x(1,1,7,2,8) 0
x(1,1,7,1,8) 0
x(1,2,7,2,8) 0
x(1,3,7,1,9) 0
x(1,3,7,3,8) 0
x(1,1,8,2,9) 0
x(1,1,8,1,9) 0
x(1,2,8,2,9) 0
x(1,3,8,1,10) 0
x(1,3,8,3,9) 0
x(1,1,9,2,10) 0
x(1,1,9,1,10) 0
x(1,2,9,2,10) 0
x(1,3,9,1,11) 0
x(1,1,10,2,11) 0
x(1,1,10,1,11) 0
x(1,2,10,2,11) 0
x(1,1,11,2,12) 0
x(1,2,11,2,12) 0
x(1,2,12,2,13) 0
x(2,2,0,3,1) 1
x(2,2,0,2,1) 0
x(2,2,1,3,2) 0
x(2,2,1,2,2) 0
x(2,3,1,1,3) 0
x(2,3,1,3,2) 1
x(2,2,2,3,3) 0
x(2,2,2,2,3) 0
x(2,3,2,1,4) 0
x(2,3,2,3,3) 1
x(2,1,3,1,4) 0
x(2,2,3,3,4) 0
x(2,2,3,2,4) 0
x(2,3,3,1,5) 1
x(2,3,3,3,4) 0
x(2,1,4,1,5) 0
x(2,2,4,3,5) 0
x(2,2,4,2,5) 0
x(2,3,4,1,6) 0
x(2,3,4,3,5) 0
x(2,1,5,1,6) 0
x(2,2,5,3,6) 0
x(2,2,5,2,6) 0
x(2,3,5,1,7) 0
x(2,3,5,3,6) 0
x(2,1,6,1,7) 0
x(2,2,6,3,7) 0
x(2,2,6,2,7) 0
x(2,3,6,1,8) 0
x(2,3,6,3,7) 0
x(2,1,7,1,8) 0
x(2,2,7,3,8) 0
x(2,2,7,2,8) 0
x(2,3,7,1,9) 0
x(2,3,7,3,8) 0
x(2,1,8,1,9) 0
x(2,2,8,3,9) 0
x(2,2,8,2,9) 0
x(2,3,8,1,10) 0
x(2,3,8,3,9) 0
x(2,1,9,1,10) 0
x(2,2,9,3,10) 0
x(2,3,9,1,11) 0
x(2,3,9,3,10) 0
x(2,1,10,1,11) 0
x(2,3,10,1,12) 0
x(2,1,11,1,12) 0
x(2,1,12,1,13) 0
x(3,3,0,2,1) 1
x(3,3,0,3,1) 0
x(3,2,1,1,3) 1
x(3,2,1,2,2) 0
x(3,3,1,2,2) 0
x(3,3,1,3,2) 0
x(3,2,2,1,4) 0
x(3,2,2,2,3) 0
x(3,3,2,2,3) 0
x(3,3,2,3,3) 0
x(3,1,3,1,4) 0
x(3,2,3,1,5) 0
x(3,2,3,2,4) 0
x(3,3,3,2,4) 0
x(3,3,3,3,4) 0
x(3,1,4,1,5) 0
x(3,2,4,1,6) 0
x(3,2,4,2,5) 0
x(3,3,4,2,5) 0
x(3,3,4,3,5) 0
x(3,1,5,1,6) 0
x(3,2,5,1,7) 0
x(3,2,5,2,6) 0
x(3,3,5,2,6) 0
x(3,3,5,3,6) 0
x(3,1,6,1,7) 0
x(3,2,6,1,8) 0
x(3,2,6,2,7) 0
x(3,3,6,2,7) 0
x(3,3,6,3,7) 0
x(3,1,7,1,8) 0
x(3,2,7,1,9) 0
x(3,2,7,2,8) 0
x(3,3,7,2,8) 0
x(3,3,7,3,8) 0
x(3,1,8,1,9) 0
x(3,2,8,1,10) 0
x(3,2,8,2,9) 0
x(3,3,8,2,9) 0
x(3,3,8,3,9) 0
x(3,1,9,1,10) 0
x(3,2,9,1,11) 0
x(3,2,9,2,10) 0
x(3,3,9,2,10) 0
x(3,3,9,3,10) 0
x(3,1,10,1,11) 0
x(3,2,10,1,12) 0
x(3,2,10,2,11) 0
x(3,3,10,2,11) 0
x(3,1,11,1,12) 0
x(3,2,11,1,13) 0
x(3,1,12,1,13) 0
x(3,1,13,1,14) 0
